 91   0   0  67   0  80  31  30  42   0  68  33   0   1  72  97   0  82  26  41  65  44  15  51  24  59   0   0  49  93   0   0  78  77  34  28  20   0  21   9  12  38   0   0  57 
  0   0   0   0   0   0  81   0   0   0   0   4   0  99   0   0   0   0   0   0  50  86   0   0   0   0  85  83   0   2   0   0   0   0   0  74   0   0   0   0  64  45   0   0   0 
  0   0   0   0   0   0   0   0   0   0   0  58  88   0  40   0   0   0   0   0   0   0   0   0   0   8   0  69   0   0   0   0   0   0   0  84   0   0   0   0  29   0   0  96   0 
  0   0   0   0   0   0   0  95   0  37   0   0   0   0  13  63  52   0   0  55  70  25  56   0  94   0   0  98   0   0   0   0  79  61   0   0   0   0  27   0  19  10   6  60   0 
 90   0   0  92   0   0  17   3  89   0  35  39  75  11   0   0  53  14  36  71  22  47   0  87   7  48   0  43  23  46   5   0  76  32   0   0  62  73   0  16  18   0   0  54  66 
